set NODES := 0 1 2 3 4;

param C :
    0   1   2   3   4 :=
 0  -1  300  -1  654  926
 1  305  -1  963  117  237
 2  952  493  -1  704  686
 3  678  123  -1  -1  41
 4  946  237  1155  34  -1
;

set PROHIBITED := ;

param start_node := 0;
param end_node := 4;
